language Essence 1.3

letting class be function(1 --> 1, 2 --> 1, 3 --> 1, 4 --> 1, 5 --> 1, 6 --> 1, 7 --> 1)
letting deck_length be 31
letting deck_width be 61
letting length be function(1 --> 27, 2 --> 7, 3 --> 1, 4 --> 1, 5 --> 8, 6 --> 9, 7 --> 17)
letting n_classes be 1
letting n_containers be 7
letting separation be function()
letting width be function(1 --> 8, 2 --> 1, 3 --> 3, 4 --> 1, 5 --> 1, 6 --> 7, 7 --> 28)
